60
1 0 15
2 0 37
2 1 71
3 0 60
3 1 60
3 2 2
4 0 58
4 1 78
4 2 35
4 3 68
5 0 5
5 1 24
5 2 61
5 3 96
5 4 41
6 0 76
6 1 1
6 2 42
6 3 55
6 4 77
6 5 69
7 0 23
7 1 75
7 2 96
7 3 37
7 4 63
7 5 94
7 6 24
8 0 55
8 1 79
8 2 70
8 3 36
8 4 57
8 5 77
8 6 81
8 7 69
9 0 15
9 1 97
9 2 31
9 3 77
9 4 65
9 5 19
9 6 4
9 7 80
9 8 13
10 0 2
10 1 33
10 2 21
10 3 100
10 4 45
10 5 37
10 6 78
10 7 85
10 8 69
10 9 17
11 0 6
11 1 66
11 2 73
11 3 46
11 4 16
11 5 59
11 6 15
11 7 67
11 8 6
11 9 3
11 10 100
12 0 98
12 1 89
12 2 45
12 3 2
12 4 11
12 5 10
12 6 51
12 7 38
12 8 19
12 9 26
12 10 26
12 11 71
13 0 3
13 1 98
13 2 46
13 3 19
13 4 55
13 5 19
13 6 30
13 7 82
13 8 25
13 9 77
13 10 13
13 11 29
13 12 88
14 0 28
14 1 1
14 2 96
14 3 77
14 4 25
14 5 95
14 6 99
14 7 50
14 8 30
14 9 47
14 10 49
14 11 81
14 12 99
14 13 69
15 0 30
15 1 92
15 2 38
15 3 96
15 4 80
15 5 73
15 6 39
15 7 6
15 8 81
15 9 51
15 10 66
15 11 16
15 12 48
15 13 12
15 14 45
16 0 20
16 1 77
16 2 74
16 3 70
16 4 50
16 5 95
16 6 78
16 7 48
16 8 52
16 9 98
16 10 41
16 11 22
16 12 22
16 13 10
16 14 84
16 15 53
17 0 48
17 1 70
17 2 38
17 3 68
17 4 44
17 5 33
17 6 75
17 7 77
17 8 74
17 9 49
17 10 37
17 11 26
17 12 3
17 13 58
17 14 47
17 15 54
17 16 24
18 0 7
18 1 26
18 2 52
18 3 50
18 4 78
18 5 51
18 6 46
18 7 62
18 8 97
18 9 36
18 10 58
18 11 60
18 12 34
18 13 12
18 14 12
18 15 56
18 16 43
18 17 30
19 0 96
19 1 4
19 2 96
19 3 38
19 4 83
19 5 55
19 6 91
19 7 83
19 8 87
19 9 87
19 10 56
19 11 46
19 12 99
19 13 48
19 14 83
19 15 20
19 16 28
19 17 100
19 18 50
20 0 71
20 1 51
20 2 70
20 3 13
20 4 59
20 5 33
20 6 35
20 7 93
20 8 100
20 9 85
20 10 93
20 11 85
20 12 98
20 13 59
20 14 15
20 15 44
20 16 81
20 17 9
20 18 57
20 19 56
21 0 9
21 1 60
21 2 92
21 3 76
21 4 60
21 5 63
21 6 90
21 7 96
21 8 83
21 9 32
21 10 52
21 11 89
21 12 99
21 13 94
21 14 72
21 15 17
21 16 77
21 17 85
21 18 94
21 19 20
21 20 15
22 0 91
22 1 82
22 2 20
22 3 13
22 4 100
22 5 14
22 6 96
22 7 1
22 8 27
22 9 85
22 10 22
22 11 79
22 12 21
22 13 60
22 14 84
22 15 67
22 16 62
22 17 19
22 18 95
22 19 80
22 20 25
22 21 99
23 0 90
23 1 67
23 2 48
23 3 4
23 4 77
23 5 94
23 6 36
23 7 48
23 8 48
23 9 46
23 10 100
23 11 56
23 12 8
23 13 81
23 14 6
23 15 23
23 16 58
23 17 68
23 18 71
23 19 29
23 20 35
23 21 86
23 22 47
24 0 43
24 1 18
24 2 66
24 3 82
24 4 59
24 5 32
24 6 4
24 7 30
24 8 65
24 9 7
24 10 77
24 11 68
24 12 32
24 13 99
24 14 41
24 15 31
24 16 63
24 17 55
24 18 96
24 19 76
24 20 53
24 21 80
24 22 30
24 23 48
25 0 40
25 1 65
25 2 10
25 3 76
25 4 54
25 5 45
25 6 45
25 7 63
25 8 94
25 9 29
25 10 61
25 11 22
25 12 83
25 13 1
25 14 69
25 15 76
25 16 97
25 17 90
25 18 84
25 19 30
25 20 42
25 21 68
25 22 67
25 23 81
25 24 48
26 0 99
26 1 69
26 2 14
26 3 6
26 4 80
26 5 7
26 6 21
26 7 34
26 8 19
26 9 7
26 10 21
26 11 92
26 12 55
26 13 85
26 14 75
26 15 52
26 16 20
26 17 57
26 18 33
26 19 5
26 20 81
26 21 98
26 22 34
26 23 54
26 24 28
26 25 91
27 0 76
27 1 34
27 2 85
27 3 27
27 4 2
27 5 50
27 6 65
27 7 68
27 8 82
27 9 30
27 10 5
27 11 62
27 12 86
27 13 30
27 14 31
27 15 84
27 16 68
27 17 31
27 18 52
27 19 39
27 20 20
27 21 42
27 22 89
27 23 49
27 24 62
27 25 66
27 26 75
28 0 19
28 1 66
28 2 1
28 3 90
28 4 38
28 5 47
28 6 9
28 7 11
28 8 78
28 9 56
28 10 42
28 11 99
28 12 77
28 13 62
28 14 17
28 15 48
28 16 43
28 17 12
28 18 100
28 19 62
28 20 95
28 21 1
28 22 8
28 23 56
28 24 32
28 25 96
28 26 58
28 27 68
29 0 10
29 1 85
29 2 29
29 3 49
29 4 46
29 5 57
29 6 95
29 7 64
29 8 95
29 9 33
29 10 62
29 11 10
29 12 63
29 13 94
29 14 11
29 15 55
29 16 59
29 17 89
29 18 24
29 19 35
29 20 83
29 21 12
29 22 61
29 23 63
29 24 18
29 25 71
29 26 99
29 27 56
29 28 75
30 0 13
30 1 57
30 2 66
30 3 88
30 4 58
30 5 68
30 6 76
30 7 80
30 8 61
30 9 79
30 10 97
30 11 47
30 12 4
30 13 71
30 14 81
30 15 8
30 16 90
30 17 55
30 18 30
30 19 40
30 20 96
30 21 64
30 22 69
30 23 95
30 24 89
30 25 55
30 26 15
30 27 48
30 28 33
30 29 8
31 0 51
31 1 55
31 2 24
31 3 47
31 4 6
31 5 88
31 6 49
31 7 60
31 8 73
31 9 93
31 10 38
31 11 70
31 12 41
31 13 92
31 14 58
31 15 90
31 16 8
31 17 8
31 18 89
31 19 69
31 20 9
31 21 7
31 22 49
31 23 97
31 24 69
31 25 58
31 26 74
31 27 48
31 28 70
31 29 82
31 30 87
32 0 58
32 1 94
32 2 24
32 3 74
32 4 83
32 5 68
32 6 72
32 7 82
32 8 71
32 9 46
32 10 21
32 11 98
32 12 53
32 13 85
32 14 25
32 15 61
32 16 36
32 17 96
32 18 20
32 19 46
32 20 37
32 21 2
32 22 90
32 23 90
32 24 23
32 25 12
32 26 13
32 27 65
32 28 15
32 29 94
32 30 12
32 31 20
33 0 84
33 1 26
33 2 90
33 3 36
33 4 50
33 5 28
33 6 42
33 7 80
33 8 53
33 9 27
33 10 53
33 11 40
33 12 70
33 13 3
33 14 34
33 15 81
33 16 81
33 17 12
33 18 51
33 19 61
33 20 21
33 21 88
33 22 61
33 23 79
33 24 66
33 25 69
33 26 48
33 27 71
33 28 36
33 29 4
33 30 17
33 31 47
33 32 21
34 0 25
34 1 9
34 2 52
34 3 62
34 4 3
34 5 33
34 6 100
34 7 31
34 8 15
34 9 26
34 10 92
34 11 8
34 12 92
34 13 86
34 14 37
34 15 46
34 16 26
34 17 53
34 18 26
34 19 56
34 20 54
34 21 20
34 22 35
34 23 73
34 24 54
34 25 92
34 26 50
34 27 81
34 28 10
34 29 52
34 30 49
34 31 96
34 32 39
34 33 75
35 0 73
35 1 44
35 2 85
35 3 7
35 4 78
35 5 92
35 6 19
35 7 9
35 8 54
35 9 94
35 10 11
35 11 22
35 12 35
35 13 87
35 14 51
35 15 11
35 16 66
35 17 34
35 18 34
35 19 84
35 20 71
35 21 98
35 22 55
35 23 4
35 24 52
35 25 5
35 26 56
35 27 40
35 28 16
35 29 16
35 30 31
35 31 11
35 32 4
35 33 32
35 34 86
36 0 38
36 1 70
36 2 80
36 3 96
36 4 99
36 5 34
36 6 84
36 7 25
36 8 44
36 9 9
36 10 88
36 11 85
36 12 32
36 13 73
36 14 2
36 15 53
36 16 83
36 17 43
36 18 96
36 19 82
36 20 66
36 21 56
36 22 36
36 23 61
36 24 59
36 25 87
36 26 65
36 27 20
36 28 57
36 29 38
36 30 53
36 31 78
36 32 6
36 33 88
36 34 85
36 35 92
37 0 9
37 1 94
37 2 51
37 3 41
37 4 7
37 5 62
37 6 50
37 7 50
37 8 37
37 9 53
37 10 46
37 11 65
37 12 46
37 13 82
37 14 13
37 15 5
37 16 71
37 17 16
37 18 68
37 19 60
37 20 40
37 21 90
37 22 86
37 23 16
37 24 64
37 25 3
37 26 26
37 27 33
37 28 89
37 29 47
37 30 31
37 31 86
37 32 60
37 33 87
37 34 80
37 35 54
37 36 10
38 0 7
38 1 85
38 2 35
38 3 56
38 4 64
38 5 85
38 6 96
38 7 95
38 8 44
38 9 75
38 10 95
38 11 14
38 12 96
38 13 48
38 14 40
38 15 49
38 16 83
38 17 79
38 18 70
38 19 84
38 20 97
38 21 45
38 22 65
38 23 49
38 24 98
38 25 70
38 26 25
38 27 71
38 28 1
38 29 55
38 30 83
38 31 87
38 32 8
38 33 2
38 34 34
38 35 10
38 36 57
38 37 64
39 0 80
39 1 33
39 2 41
39 3 81
39 4 61
39 5 85
39 6 13
39 7 71
39 8 89
39 9 83
39 10 96
39 11 87
39 12 6
39 13 58
39 14 34
39 15 74
39 16 66
39 17 27
39 18 78
39 19 71
39 20 68
39 21 49
39 22 94
39 23 54
39 24 17
39 25 95
39 26 20
39 27 1
39 28 87
39 29 8
39 30 16
39 31 38
39 32 7
39 33 35
39 34 88
39 35 94
39 36 98
39 37 56
39 38 81
40 0 67
40 1 28
40 2 60
40 3 69
40 4 90
40 5 66
40 6 12
40 7 80
40 8 35
40 9 54
40 10 31
40 11 41
40 12 11
40 13 29
40 14 79
40 15 41
40 16 32
40 17 48
40 18 9
40 19 30
40 20 63
40 21 23
40 22 37
40 23 1
40 24 68
40 25 56
40 26 39
40 27 42
40 28 28
40 29 22
40 30 76
40 31 45
40 32 94
40 33 58
40 34 7
40 35 95
40 36 92
40 37 49
40 38 40
40 39 96
41 0 100
41 1 8
41 2 28
41 3 5
41 4 64
41 5 10
41 6 20
41 7 71
41 8 21
41 9 18
41 10 9
41 11 95
41 12 39
41 13 97
41 14 51
41 15 84
41 16 11
41 17 40
41 18 39
41 19 44
41 20 41
41 21 10
41 22 57
41 23 27
41 24 27
41 25 98
41 26 54
41 27 57
41 28 14
41 29 54
41 30 1
41 31 78
41 32 82
41 33 11
41 34 34
41 35 93
41 36 97
41 37 52
41 38 87
41 39 6
41 40 14
42 0 57
42 1 72
42 2 87
42 3 44
42 4 36
42 5 61
42 6 96
42 7 8
42 8 46
42 9 71
42 10 54
42 11 28
42 12 46
42 13 68
42 14 62
42 15 49
42 16 25
42 17 23
42 18 76
42 19 85
42 20 16
42 21 8
42 22 99
42 23 26
42 24 88
42 25 5
42 26 66
42 27 53
42 28 65
42 29 48
42 30 8
42 31 57
42 32 26
42 33 61
42 34 33
42 35 43
42 36 71
42 37 27
42 38 61
42 39 78
42 40 76
42 41 8
43 0 100
43 1 6
43 2 57
43 3 23
43 4 45
43 5 43
43 6 16
43 7 18
43 8 42
43 9 32
43 10 53
43 11 18
43 12 48
43 13 95
43 14 51
43 15 26
43 16 75
43 17 48
43 18 78
43 19 13
43 20 13
43 21 41
43 22 53
43 23 19
43 24 49
43 25 46
43 26 88
43 27 49
43 28 41
43 29 5
43 30 86
43 31 48
43 32 11
43 33 9
43 34 54
43 35 74
43 36 66
43 37 82
43 38 87
43 39 17
43 40 63
43 41 69
43 42 1
44 0 20
44 1 69
44 2 67
44 3 37
44 4 6
44 5 91
44 6 56
44 7 71
44 8 24
44 9 75
44 10 93
44 11 78
44 12 58
44 13 92
44 14 95
44 15 60
44 16 58
44 17 76
44 18 32
44 19 27
44 20 4
44 21 63
44 22 79
44 23 76
44 24 2
44 25 52
44 26 18
44 27 36
44 28 63
44 29 100
44 30 89
44 31 56
44 32 32
44 33 7
44 34 24
44 35 47
44 36 63
44 37 54
44 38 7
44 39 22
44 40 47
44 41 4
44 42 64
44 43 91
45 0 47
45 1 90
45 2 58
45 3 94
45 4 3
45 5 24
45 6 50
45 7 87
45 8 98
45 9 17
45 10 52
45 11 25
45 12 4
45 13 9
45 14 73
45 15 82
45 16 51
45 17 11
45 18 57
45 19 18
45 20 86
45 21 43
45 22 38
45 23 90
45 24 18
45 25 5
45 26 70
45 27 48
45 28 58
45 29 12
45 30 20
45 31 75
45 32 6
45 33 89
45 34 17
45 35 64
45 36 47
45 37 100
45 38 89
45 39 31
45 40 49
45 41 61
45 42 54
45 43 13
45 44 87
46 0 61
46 1 33
46 2 6
46 3 23
46 4 89
46 5 96
46 6 27
46 7 20
46 8 37
46 9 67
46 10 22
46 11 85
46 12 38
46 13 47
46 14 39
46 15 42
46 16 48
46 17 38
46 18 45
46 19 98
46 20 92
46 21 60
46 22 62
46 23 53
46 24 19
46 25 6
46 26 41
46 27 64
46 28 47
46 29 87
46 30 98
46 31 57
46 32 92
46 33 34
46 34 91
46 35 56
46 36 6
46 37 81
46 38 7
46 39 72
46 40 70
46 41 44
46 42 87
46 43 63
46 44 28
46 45 67
47 0 5
47 1 77
47 2 40
47 3 88
47 4 87
47 5 12
47 6 97
47 7 70
47 8 30
47 9 77
47 10 37
47 11 82
47 12 57
47 13 28
47 14 39
47 15 26
47 16 26
47 17 12
47 18 87
47 19 56
47 20 63
47 21 56
47 22 49
47 23 27
47 24 3
47 25 63
47 26 82
47 27 68
47 28 55
47 29 21
47 30 81
47 31 68
47 32 14
47 33 24
47 34 37
47 35 31
47 36 2
47 37 64
47 38 42
47 39 19
47 40 2
47 41 59
47 42 90
47 43 6
47 44 17
47 45 97
47 46 44
48 0 100
48 1 72
48 2 28
48 3 71
48 4 12
48 5 33
48 6 42
48 7 65
48 8 84
48 9 27
48 10 98
48 11 14
48 12 92
48 13 68
48 14 98
48 15 72
48 16 97
48 17 34
48 18 23
48 19 51
48 20 4
48 21 46
48 22 80
48 23 44
48 24 55
48 25 50
48 26 12
48 27 34
48 28 69
48 29 100
48 30 86
48 31 62
48 32 92
48 33 80
48 34 53
48 35 48
48 36 38
48 37 36
48 38 44
48 39 100
48 40 21
48 41 93
48 42 48
48 43 49
48 44 17
48 45 77
48 46 85
48 47 82
49 0 94
49 1 70
49 2 82
49 3 92
49 4 16
49 5 68
49 6 88
49 7 36
49 8 95
49 9 19
49 10 13
49 11 88
49 12 54
49 13 64
49 14 61
49 15 19
49 16 25
49 17 5
49 18 100
49 19 47
49 20 85
49 21 71
49 22 89
49 23 39
49 24 24
49 25 61
49 26 42
49 27 51
49 28 80
49 29 82
49 30 19
49 31 45
49 32 87
49 33 11
49 34 61
49 35 14
49 36 33
49 37 53
49 38 12
49 39 16
49 40 14
49 41 68
49 42 94
49 43 72
49 44 27
49 45 86
49 46 30
49 47 14
49 48 53
50 0 52
50 1 32
50 2 58
50 3 11
50 4 45
50 5 94
50 6 47
50 7 82
50 8 77
50 9 64
50 10 8
50 11 48
50 12 74
50 13 76
50 14 83
50 15 80
50 16 64
50 17 74
50 18 55
50 19 75
50 20 63
50 21 60
50 22 76
50 23 36
50 24 14
50 25 34
50 26 51
50 27 25
50 28 8
50 29 32
50 30 55
50 31 51
50 32 17
50 33 54
50 34 75
50 35 66
50 36 8
50 37 55
50 38 10
50 39 77
50 40 14
50 41 36
50 42 70
50 43 4
50 44 76
50 45 58
50 46 50
50 47 43
50 48 98
50 49 70
51 0 75
51 1 100
51 2 76
51 3 12
51 4 55
51 5 26
51 6 71
51 7 47
51 8 73
51 9 52
51 10 69
51 11 29
51 12 100
51 13 9
51 14 27
51 15 9
51 16 34
51 17 91
51 18 1
51 19 36
51 20 75
51 21 78
51 22 11
51 23 10
51 24 93
51 25 43
51 26 84
51 27 83
51 28 70
51 29 5
51 30 87
51 31 28
51 32 98
51 33 100
51 34 25
51 35 18
51 36 70
51 37 79
51 38 89
51 39 75
51 40 8
51 41 65
51 42 54
51 43 96
51 44 1
51 45 19
51 46 85
51 47 61
51 48 59
51 49 2
51 50 89
52 0 67
52 1 90
52 2 29
52 3 14
52 4 65
52 5 75
52 6 56
52 7 5
52 8 81
52 9 82
52 10 44
52 11 43
52 12 47
52 13 54
52 14 87
52 15 45
52 16 80
52 17 62
52 18 11
52 19 96
52 20 75
52 21 94
52 22 64
52 23 30
52 24 13
52 25 42
52 26 65
52 27 3
52 28 90
52 29 95
52 30 81
52 31 7
52 32 24
52 33 49
52 34 41
52 35 19
52 36 88
52 37 100
52 38 28
52 39 100
52 40 78
52 41 75
52 42 76
52 43 65
52 44 37
52 45 16
52 46 88
52 47 7
52 48 50
52 49 34
52 50 50
52 51 40
53 0 15
53 1 73
53 2 89
53 3 87
53 4 52
53 5 79
53 6 19
53 7 49
53 8 84
53 9 54
53 10 70
53 11 98
53 12 30
53 13 25
53 14 83
53 15 10
53 16 71
53 17 78
53 18 23
53 19 25
53 20 93
53 21 32
53 22 49
53 23 76
53 24 8
53 25 46
53 26 34
53 27 61
53 28 17
53 29 92
53 30 28
53 31 26
53 32 61
53 33 32
53 34 2
53 35 81
53 36 73
53 37 82
53 38 26
53 39 84
53 40 24
53 41 57
53 42 61
53 43 55
53 44 36
53 45 19
53 46 70
53 47 1
53 48 3
53 49 87
53 50 76
53 51 68
53 52 22
54 0 71
54 1 29
54 2 61
54 3 63
54 4 30
54 5 49
54 6 78
54 7 95
54 8 88
54 9 68
54 10 62
54 11 68
54 12 48
54 13 85
54 14 70
54 15 9
54 16 77
54 17 97
54 18 6
54 19 80
54 20 67
54 21 84
54 22 62
54 23 21
54 24 92
54 25 56
54 26 75
54 27 53
54 28 10
54 29 87
54 30 96
54 31 35
54 32 85
54 33 94
54 34 14
54 35 85
54 36 23
54 37 41
54 38 88
54 39 21
54 40 58
54 41 77
54 42 93
54 43 70
54 44 23
54 45 26
54 46 61
54 47 61
54 48 82
54 49 99
54 50 87
54 51 99
54 52 38
54 53 100
55 0 31
55 1 74
55 2 14
55 3 26
55 4 27
55 5 68
55 6 78
55 7 6
55 8 89
55 9 61
55 10 79
55 11 23
55 12 71
55 13 34
55 14 86
55 15 96
55 16 23
55 17 38
55 18 63
55 19 37
55 20 47
55 21 74
55 22 26
55 23 11
55 24 44
55 25 88
55 26 53
55 27 48
55 28 15
55 29 98
55 30 52
55 31 89
55 32 48
55 33 91
55 34 98
55 35 81
55 36 3
55 37 61
55 38 11
55 39 28
55 40 84
55 41 83
55 42 19
55 43 90
55 44 57
55 45 29
55 46 31
55 47 64
55 48 57
55 49 91
55 50 30
55 51 95
55 52 73
55 53 46
55 54 37
56 0 16
56 1 38
56 2 94
56 3 22
56 4 95
56 5 36
56 6 50
56 7 58
56 8 46
56 9 10
56 10 63
56 11 46
56 12 34
56 13 40
56 14 1
56 15 57
56 16 82
56 17 15
56 18 27
56 19 63
56 20 49
56 21 25
56 22 48
56 23 57
56 24 54
56 25 45
56 26 13
56 27 93
56 28 53
56 29 84
56 30 5
56 31 85
56 32 96
56 33 29
56 34 22
56 35 36
56 36 21
56 37 94
56 38 80
56 39 16
56 40 65
56 41 66
56 42 66
56 43 85
56 44 2
56 45 10
56 46 4
56 47 35
56 48 21
56 49 55
56 50 51
56 51 8
56 52 28
56 53 93
56 54 9
56 55 92
57 0 19
57 1 65
57 2 23
57 3 34
57 4 60
57 5 94
57 6 12
57 7 87
57 8 75
57 9 9
57 10 44
57 11 2
57 12 25
57 13 68
57 14 52
57 15 35
57 16 34
57 17 59
57 18 53
57 19 10
57 20 88
57 21 57
57 22 24
57 23 73
57 24 14
57 25 53
57 26 39
57 27 28
57 28 20
57 29 90
57 30 69
57 31 38
57 32 55
57 33 59
57 34 6
57 35 21
57 36 2
57 37 61
57 38 63
57 39 92
57 40 39
57 41 22
57 42 54
57 43 23
57 44 16
57 45 20
57 46 62
57 47 16
57 48 24
57 49 65
57 50 45
57 51 24
57 52 80
57 53 37
57 54 44
57 55 50
57 56 35
58 0 80
58 1 89
58 2 18
58 3 73
58 4 92
58 5 10
58 6 5
58 7 81
58 8 75
58 9 13
58 10 53
58 11 91
58 12 28
58 13 74
58 14 20
58 15 25
58 16 100
58 17 51
58 18 41
58 19 3
58 20 28
58 21 24
58 22 90
58 23 80
58 24 35
58 25 18
58 26 80
58 27 41
58 28 64
58 29 65
58 30 36
58 31 57
58 32 65
58 33 4
58 34 29
58 35 80
58 36 67
58 37 30
58 38 55
58 39 39
58 40 1
58 41 47
58 42 96
58 43 58
58 44 61
58 45 80
58 46 3
58 47 12
58 48 3
58 49 39
58 50 79
58 51 85
58 52 31
58 53 69
58 54 60
58 55 11
58 56 35
58 57 100
59 0 19
59 1 92
59 2 45
59 3 99
59 4 35
59 5 38
59 6 36
59 7 83
59 8 13
59 9 69
59 10 10
59 11 35
59 12 42
59 13 80
59 14 16
59 15 56
59 16 27
59 17 43
59 18 95
59 19 17
59 20 23
59 21 10
59 22 63
59 23 12
59 24 77
59 25 44
59 26 70
59 27 27
59 28 42
59 29 83
59 30 87
59 31 56
59 32 13
59 33 13
59 34 23
59 35 57
59 36 21
59 37 14
59 38 63
59 39 12
59 40 61
59 41 98
59 42 91
59 43 30
59 44 55
59 45 56
59 46 21
59 47 20
59 48 73
59 49 86
59 50 67
59 51 18
59 52 59
59 53 54
59 54 25
59 55 46
59 56 39
59 57 33
59 58 25
